0 8 2 3 8 5 8 5 3 5 7
8 0 6 3 7 2 9 8 6 6 8
2 6 0 4 4 1 9 2 1 6 6
3 3 4 0 4 1 4 5 2 2 1
8 7 4 4 0 2 2 5 4 5 4
5 2 1 1 2 0 2 2 1 2 1
8 9 9 4 2 2 0 3 1 2 1
5 8 2 5 5 2 3 0 1 1 2
3 6 1 2 4 1 1 1 0 1 1
5 6 6 2 5 2 2 1 1 0 1
7 8 6 1 4 1 1 2 1 1 0
